unsat
(forall ((A (_ BitVec 1))
         (B (_ BitVec 1))
         (C (_ BitVec 1))
         (D (_ BitVec 32))
         (E (_ BitVec 32))
         (F (_ BitVec 22))
         (G (_ BitVec 2))
         (H (_ BitVec 32))
         (I (_ BitVec 1))
         (J (_ BitVec 1))
         (K (_ BitVec 1))
         (L (_ BitVec 1))
         (M (_ BitVec 2))
         (N (_ BitVec 1))
         (O (_ BitVec 1))
         (P (_ BitVec 1))
         (Q (_ BitVec 6))
         (R (_ BitVec 6))
         (S (_ BitVec 1))
         (T (_ BitVec 1))
         (U (_ BitVec 1))
         (V (_ BitVec 1))
         (W (_ BitVec 2))
         (X (_ BitVec 1))
         (Y (_ BitVec 1))
         (Z (_ BitVec 1))
         (A1 (_ BitVec 1))
         (B1 (_ BitVec 1))
         (C1 (_ BitVec 34))
         (D1 (_ BitVec 1))
         (E1 (_ BitVec 2))
         (F1 (_ BitVec 6))
         (G1 (_ BitVec 1))
         (H1 (_ BitVec 1))
         (I1 (_ BitVec 1))
         (J1 (_ BitVec 1))
         (K1 (_ BitVec 1))
         (L1 (_ BitVec 6))
         (M1 (_ BitVec 22))
         (N1 (_ BitVec 1))
         (O1 (_ BitVec 1))
         (P1 (_ BitVec 1))
         (Q1 (_ BitVec 1))
         (R1 (_ BitVec 1))
         (S1 (_ BitVec 1))
         (T1 (_ BitVec 1))
         (U1 (_ BitVec 1))
         (V1 (_ BitVec 1))
         (W1 (_ BitVec 1))
         (X1 (_ BitVec 1))
         (Y1 (_ BitVec 32))
         (Z1 (_ BitVec 1))
         (A2 (_ BitVec 2))
         (B2 (_ BitVec 1))
         (C2 (_ BitVec 22))
         (D2 (_ BitVec 1)))
  (! (let ((a!1 (or (not ((_ bit2bool 0) L1))
                    (not (= ((_ extract 1 1) A2) #b1))))
           (a!2 (not (or (not (= F1 #b000010)) (= O1 #b0) (= P1 #b0))))
           (a!3 (not (or (not (= F1 #b000001)) (= O1 #b0) (= P1 #b0))))
           (a!6 (or (not (= ((_ extract 0 0) W) #b1))
                    (= ((_ extract 0 0) L1) #b0)))
           (a!7 (or (not (= ((_ extract 0 0) A2) #b1))
                    (= ((_ extract 0 0) L1) #b0)))
           (a!8 (or (not ((_ bit2bool 2) L1))
                    (not (= ((_ extract 5 1) F1) #b00000))))
           (a!9 (or (not (= ((_ extract 5 1) F1) #b00000))
                    (ite (= N #b1)
                         (= ((_ extract 2 2) L1) #b0)
                         (= ((_ extract 3 3) L1) #b0)))))
     (let ((a!4 (ite (or (= N #b1) (= F1 #b000000))
                     (or a!2 (= ((_ extract 5 1) F1) #b00000))
                     a!3)))
     (let ((a!5 (or (not a!4)
                    (ite (= N #b1)
                         (= ((_ extract 0 0) L1) #b0)
                         (= ((_ extract 1 1) L1) #b0)))))
     (let ((a!10 (and (or (not ((_ bit2bool 3) L1)) (not (= U1 #b0)))
                      (= D1 #b0)
                      (or (= W #b00) (not (= K #b0)) (not (= U #b0)) (= Q1 #b0))
                      (or (not ((_ bit2bool 0) K1)) (not (= U1 #b0)))
                      (or (not (= U1 #b0)) (= V #b0) (= R1 #b1))
                      (or (= W #b00) (not (= K1 #b1)))
                      (or (not ((_ bit2bool 1) L1)) (not (= J #b0)))
                      a!1
                      (or (= I1 #b1) (not ((_ bit2bool 0) L1)) (= R Q))
                      (or (= O1 #b0) (not (= I #b0)))
                      (or (not ((_ bit2bool 1) L1)) (not (= Q1 #b0)))
                      (or (not ((_ bit2bool 0) L1))
                          (= ((_ extract 0 0) F1) #b1))
                      (or (not ((_ bit2bool 0) L1)) (= R1 #b1))
                      (or (not ((_ bit2bool 1) L1)) (not (= U #b0)))
                      (or (not ((_ bit2bool 0) L1)) (not (= U #b0)))
                      (or (= J1 #b1) (= W #b00))
                      (or (= J1 #b1) (= U1 #b1))
                      (or (not (= N #b1)) (not (= P1 #b1)))
                      (or (not ((_ bit2bool 0) I1)) (= O1 #b0))
                      (or (not ((_ bit2bool 0) L1)) (not (= Q1 #b0)))
                      a!5
                      (or (not (= S #b1)) (= ((_ extract 1 1) L1) #b0))
                      (or (= ((_ extract 1 1) L1) #b0) (not (= U1 #b0)))
                      (or (not (= U1 #b0)) (= ((_ extract 0 0) L1) #b0))
                      (or (= W #b10) (not ((_ bit2bool 1) L1)) (not (= T #b1)))
                      (or (not ((_ bit2bool 1) L1))
                          (= ((_ extract 2 2) F1) #b1))
                      (or (= O1 #b0) (= ((_ extract 0 0) L1) #b0))
                      a!6
                      (or (= ((_ extract 1 1) W) #b1) (not ((_ bit2bool 0) L1)))
                      a!7
                      (or ((_ bit2bool 2) F1) (= ((_ extract 0 0) L1) #b0))
                      (or (not ((_ bit2bool 2) L1)) (not (= Q1 #b0)))
                      (or ((_ bit2bool 0) F1)
                          ((_ bit2bool 2) F1)
                          (not ((_ bit2bool 2) L1)))
                      a!8
                      (or (= ((_ extract 2 2) L1) #b0) (not (= U1 #b0)))
                      (or (not ((_ bit2bool 3) L1)) (not (= Q1 #b0)))
                      a!9)))
       (= (INV!slice!1 A
                       B
                       C
                       D
                       E
                       F
                       G
                       H
                       I
                       J
                       K
                       L
                       M
                       N
                       O
                       P
                       Q
                       R
                       S
                       T
                       U
                       V
                       W
                       X
                       Y
                       Z
                       A1
                       B1
                       C1
                       D1
                       E1
                       F1
                       G1
                       H1
                       I1
                       J1
                       K1
                       L1
                       M1
                       N1
                       O1
                       P1
                       Q1
                       R1
                       S1
                       T1
                       U1
                       V1
                       W1
                       X1
                       Y1
                       Z1
                       A2
                       B2
                       C2
                       D2)
          a!10)))))
     :weight 0))
